(set-info :smt-lib-version 2.6)
(set-logic QF_BV)
(set-info :source |
 Patrice Godefroid, SAGE (systematic dynamic test generation)
 For more information: http://research.microsoft.com/en-us/um/people/pg/public_psfiles/ndss2008.pdf
|)
(set-info :category "industrial")
(set-info :status sat)
(declare-fun T4_2115547 () (_ BitVec 32))
(declare-fun T4_31284 () (_ BitVec 32))
(declare-fun T1_2115547 () (_ BitVec 8))
(declare-fun T1_2115548 () (_ BitVec 8))
(declare-fun T1_2115549 () (_ BitVec 8))
(declare-fun T1_2115550 () (_ BitVec 8))
(declare-fun T1_31284 () (_ BitVec 8))
(declare-fun T1_31285 () (_ BitVec 8))
(declare-fun T1_31286 () (_ BitVec 8))
(declare-fun T1_31287 () (_ BitVec 8))
(assert (and true (= T4_31284 (bvor (bvshl (bvor (bvshl (bvor (bvshl ((_ zero_extend 24) T1_31287) (_ bv8 32)) ((_ zero_extend 24) T1_31286)) (_ bv8 32)) ((_ zero_extend 24) T1_31285)) (_ bv8 32)) ((_ zero_extend 24) T1_31284))) (= T4_2115547 (bvor (bvshl (bvor (bvshl (bvor (bvshl ((_ zero_extend 24) T1_2115550) (_ bv8 32)) ((_ zero_extend 24) T1_2115549)) (_ bv8 32)) ((_ zero_extend 24) T1_2115548)) (_ bv8 32)) ((_ zero_extend 24) T1_2115547))) (not (= T4_2115547 T4_31284)) (bvult (_ bv0 32) T4_2115547)))
(check-sat)
(exit)
